Minimize
  0.05 y_0 + 0.0476190476190476 y_1 + 0.0666666666666667 y_2 + 0.05 y_3
   + 0.125 y_4 + 0.1 y_5 + 0.0588235294117647 y_6 + 0.0526315789473684 y_7
   + 0.0526315789473684 y_8 + 0.04 y_9 + 0.0454545454545455 y_10
   + 0.0416666666666667 y_11 + 0.0625 y_12 + 0.0476190476190476 y_13
   + 0.05 y_14 + 0.0909090909090909 y_15 + 0.0526315789473684 y_16
   + 0.0526315789473684 y_17 + 0.0769230769230769 y_18
   + 0.0526315789473684 y_19 + 0.0714285714285714 y_20
   + 0.0833333333333333 y_21 + 0.0526315789473684 y_22
   + 0.0555555555555556 y_23 + 0.05 y_24 + 0.0588235294117647 y_25
   + 0.0714285714285714 y_26 + 0.0666666666666667 y_27
   + 0.0588235294117647 y_28 + y_29 + 0.0454545454545455 y_30
   + 0.0526315789473684 y_31 + 0.0434782608695652 y_32
   + 0.0454545454545455 y_33 + 0.0909090909090909 y_34
   + 0.0909090909090909 y_35 + 0.125 y_36 + 0.0555555555555556 y_37
   + 0.05 y_38 + 0.0588235294117647 y_39 + 0.0666666666666667 y_40
   + 0.0526315789473684 y_41 + 0.0833333333333333 y_42
   + 0.1111111111111111 y_43 + 0.0625 y_44 + 0.0909090909090909 y_45
   + 0.0526315789473684 y_46 + 0.1428571428571428 y_47
   + 0.0526315789473684 y_48 + 0.0833333333333333 y_49 + 0.2 y_50
   + 0.1428571428571428 y_51 + 0.0666666666666667 y_52
   + 0.0769230769230769 y_53 + 0.3333333333333333 y_54
   + 0.0526315789473684 y_55 + 0.0588235294117647 y_56
   + 0.0454545454545455 y_57 + 0.0526315789473684 y_58 + 0.0625 y_59
   + 0.0909090909090909 y_60 + 0.0526315789473684 y_61
   + 0.0526315789473684 y_62 + 0.0666666666666667 y_63
   + 0.0476190476190476 y_64 + 0.0666666666666667 y_65
   + 0.0666666666666667 y_66 + 0.1666666666666667 y_67
   + 0.0909090909090909 y_68 + 0.05 y_69 + 0.0555555555555556 y_70
   + 0.2 y_71 + 0.1111111111111111 y_72 + 0.0714285714285714 y_73
   + 0.0714285714285714 y_74 + 0.0476190476190476 y_75 + 0.0625 y_76
   + 0.0555555555555556 y_77 + 0.0588235294117647 y_78
   + 0.0588235294117647 y_79 + 0.0476190476190476 y_80
   + 0.0434782608695652 y_81 + 0.05 y_82 + 0.0526315789473684 y_83
   + 0.0555555555555556 y_84 + 0.0588235294117647 y_85
   + 0.0833333333333333 y_86 + 0.0526315789473684 y_87
   + 0.0384615384615385 y_88 + 0.05 y_89 + 0.1 y_90 + 0.04 y_91
   + 0.0454545454545455 y_92 + 0.25 y_93 + 0.0588235294117647 y_94
   + 0.125 y_95 + 0.0526315789473684 y_96 + 0.1428571428571428 y_97
   + 0.1428571428571428 y_98 + 0.0666666666666667 y_99
   - 8.434711522156663 Constant
Subject To
 c_0: y_46 = 1
 c_1_0: y_0 + y_11 + y_19 + y_28 + y_31 + y_33 + y_41 + y_55 + y_57 + y_69
   + y_70 + y_75 + y_80 + y_81 + y_83 + y_84 + y_96 >= 1
 c_1_1: y_1 + y_10 + y_13 + y_14 + y_25 + y_32 + y_61 + y_64 + y_87 + y_89
   >= 1
 c_1_2: y_2 + y_18 + y_21 + y_25 + y_37 + y_40 + y_42 + y_44 + y_65 + y_74
   + y_79 + y_94 + y_99 >= 1
 c_1_3: y_3 + y_6 + y_7 + y_19 + y_22 + y_24 + y_39 + y_46 + y_48 + y_55
   + y_77 + y_82 + y_83 + y_85 >= 1
 c_1_4: y_4 + y_43 + y_47 + y_72 + y_90 >= 1
 c_1_5: y_5 + y_15 + y_35 + y_36 + y_51 + y_60 + y_67 + y_68 + y_95 + y_97
   + y_98 >= 1
 c_1_6: y_3 + y_6 + y_7 + y_19 + y_20 + y_22 + y_24 + y_26 + y_27 + y_39
   + y_46 + y_48 + y_52 + y_55 + y_56 + y_59 + y_76 + y_77 + y_78 + y_82
   + y_83 + y_85 >= 1
 c_1_7: y_3 + y_6 + y_7 + y_16 + y_17 + y_22 + y_23 + y_24 + y_38 + y_46
   + y_48 + y_56 + y_58 + y_59 + y_77 + y_78 + y_82 + y_85 >= 1
 c_1_8: y_8 + y_37 + y_44 + y_62 + y_65 + y_79 + y_87 >= 1
 c_1_9: y_9 + y_10 + y_30 + y_32 + y_64 + y_88 + y_91 + y_92 >= 1
 c_1_10: y_1 + y_9 + y_10 + y_13 + y_30 + y_32 + y_61 + y_64 + y_89 + y_91
   + y_92 >= 1
 c_1_11: y_0 + y_11 + y_33 + y_57 + y_69 + y_75 + y_80 + y_81 >= 1
 c_1_12: y_12 + y_16 + y_17 + y_23 + y_27 + y_38 + y_52 + y_56 + y_58
   + y_59 + y_66 + y_76 + y_78 >= 1
 c_1_13: y_1 + y_10 + y_13 + y_14 + y_25 + y_30 + y_32 + y_61 + y_64 + y_89
   + y_92 >= 1
 c_1_14: y_1 + y_13 + y_14 + y_25 + y_37 + y_61 + y_62 + y_79 + y_87 + y_89
   + y_94 >= 1
 c_1_15: y_5 + y_15 + y_20 + y_34 + y_35 + y_36 + y_49 + y_51 + y_52 + y_60
   + y_68 + y_86 + y_95 >= 1
 c_1_16: y_7 + y_12 + y_16 + y_17 + y_22 + y_23 + y_27 + y_38 + y_46 + y_56
   + y_58 + y_59 + y_66 + y_77 + y_78 + y_82 + y_85 >= 1
 c_1_17: y_7 + y_12 + y_16 + y_17 + y_22 + y_23 + y_38 + y_46 + y_56 + y_58
   + y_59 + y_66 + y_78 + y_82 >= 1
 c_1_18: y_2 + y_18 + y_21 + y_40 + y_42 + y_44 + y_65 >= 1
 c_1_19: y_0 + y_3 + y_6 + y_19 + y_22 + y_24 + y_28 + y_31 + y_39 + y_48
   + y_55 + y_57 + y_70 + y_77 + y_83 + y_85 + y_96 >= 1
 c_1_20: y_6 + y_15 + y_20 + y_26 + y_27 + y_34 + y_39 + y_49 + y_52 + y_60
   + y_76 + y_78 + y_85 + y_86 >= 1
 c_1_21: y_2 + y_18 + y_21 + y_40 + y_42 + y_43 + y_44 + y_45 + y_65 + y_74
   >= 1
 c_1_22: y_3 + y_6 + y_7 + y_16 + y_17 + y_19 + y_22 + y_24 + y_27 + y_38
   + y_39 + y_46 + y_48 + y_56 + y_58 + y_59 + y_76 + y_77 + y_78 + y_82
   + y_83 + y_85 >= 1
 c_1_23: y_7 + y_12 + y_16 + y_17 + y_23 + y_38 + y_46 + y_56 + y_58 + y_59
   + y_66 + y_78 >= 1
 c_1_24: y_3 + y_6 + y_7 + y_19 + y_22 + y_24 + y_39 + y_46 + y_48 + y_55
   + y_56 + y_77 + y_78 + y_82 + y_83 + y_85 >= 1
 c_1_25: y_1 + y_2 + y_13 + y_14 + y_25 + y_37 + y_40 + y_44 + y_61 + y_62
   + y_74 + y_79 + y_87 + y_89 + y_94 + y_99 >= 1
 c_1_26: y_6 + y_20 + y_26 + y_28 + y_34 + y_39 + y_49 + y_53 + y_70 + y_73
   + y_76 + y_86 >= 1
 c_1_27: y_6 + y_12 + y_16 + y_20 + y_22 + y_27 + y_39 + y_46 + y_52 + y_56
   + y_58 + y_59 + y_66 + y_76 + y_77 + y_78 + y_85 >= 1
 c_1_28: y_0 + y_19 + y_26 + y_28 + y_31 + y_39 + y_41 + y_53 + y_55 + y_63
   + y_69 + y_70 + y_73 + y_75 + y_84 + y_96 >= 1
 c_1_29: y_29 + y_50 + y_54 + y_93 >= 1
 c_1_30: y_9 + y_10 + y_13 + y_30 + y_32 + y_33 + y_64 + y_69 + y_75 + y_80
   + y_89 + y_91 + y_92 >= 1
 c_1_31: y_0 + y_19 + y_28 + y_31 + y_33 + y_41 + y_55 + y_57 + y_69 + y_70
   + y_75 + y_80 + y_83 + y_84 + y_96 >= 1
 c_1_32: y_1 + y_9 + y_10 + y_13 + y_30 + y_32 + y_64 + y_89 + y_91 + y_92
   >= 1
 c_1_33: y_0 + y_11 + y_30 + y_31 + y_33 + y_41 + y_57 + y_69 + y_75 + y_80
   + y_81 + y_84 + y_92 + y_96 >= 1
 c_1_34: y_15 + y_20 + y_26 + y_34 + y_36 + y_49 + y_60 + y_68 + y_86 >= 1
 c_1_35: y_5 + y_15 + y_35 + y_36 + y_60 + y_66 + y_68 + y_95 >= 1
 c_1_36: y_5 + y_15 + y_34 + y_35 + y_36 + y_50 + y_51 + y_60 + y_67 + y_68
   + y_71 + y_95 + y_97 + y_98 >= 1
 c_1_37: y_2 + y_8 + y_14 + y_25 + y_37 + y_40 + y_44 + y_61 + y_62 + y_79
   + y_87 + y_94 + y_99 >= 1
 c_1_38: y_7 + y_12 + y_16 + y_17 + y_22 + y_23 + y_38 + y_46 + y_56 + y_58
   + y_59 + y_77 + y_78 + y_82 >= 1
 c_1_39: y_3 + y_6 + y_19 + y_20 + y_22 + y_24 + y_26 + y_27 + y_28 + y_39
   + y_46 + y_48 + y_52 + y_55 + y_56 + y_70 + y_76 + y_77 + y_78 + y_83
   + y_85 + y_96 >= 1
 c_1_40: y_2 + y_18 + y_21 + y_25 + y_37 + y_40 + y_42 + y_44 + y_62 + y_65
   + y_74 + y_79 + y_87 + y_94 + y_99 >= 1
 c_1_41: y_0 + y_28 + y_31 + y_33 + y_41 + y_55 + y_69 + y_70 + y_75 + y_80
   + y_84 + y_96 >= 1
 c_1_42: y_2 + y_18 + y_21 + y_40 + y_42 + y_43 + y_44 + y_65 + y_72 >= 1
 c_1_43: y_4 + y_21 + y_42 + y_43 + y_47 + y_72 + y_90 >= 1
 c_1_44: y_2 + y_8 + y_18 + y_21 + y_25 + y_37 + y_40 + y_42 + y_44 + y_62
   + y_65 + y_74 + y_79 + y_87 + y_94 + y_99 >= 1
 c_1_45: y_21 + y_45 + y_53 + y_73 + y_74 + y_90 + y_99 >= 1
 c_1_46: y_3 + y_6 + y_7 + y_16 + y_17 + y_22 + y_23 + y_24 + y_27 + y_38
   + y_39 + y_46 + y_48 + y_56 + y_58 + y_59 + y_76 + y_77 + y_78 + y_82
   + y_83 + y_85 >= 1
 c_1_47: y_4 + y_43 + y_47 + y_50 + y_54 + y_90 + y_93 >= 1
 c_1_48: y_3 + y_6 + y_7 + y_19 + y_22 + y_24 + y_39 + y_46 + y_48 + y_55
   + y_56 + y_58 + y_76 + y_77 + y_78 + y_82 + y_83 + y_85 >= 1
 c_1_49: y_15 + y_20 + y_26 + y_34 + y_49 + y_53 + y_60 + y_86 >= 1
 c_1_50: y_29 + y_36 + y_47 + y_50 + y_51 + y_54 + y_67 + y_71 + y_93
   + y_95 + y_97 + y_98 >= 1
 c_1_51: y_5 + y_15 + y_36 + y_50 + y_51 + y_67 + y_68 + y_71 + y_93 + y_95
   + y_97 + y_98 >= 1
 c_1_52: y_6 + y_12 + y_15 + y_20 + y_27 + y_39 + y_52 + y_56 + y_59 + y_60
   + y_66 + y_76 + y_77 + y_78 + y_85 >= 1
 c_1_53: y_26 + y_28 + y_45 + y_49 + y_53 + y_63 + y_73 + y_86 >= 1
 c_1_54: y_29 + y_47 + y_50 + y_54 + y_67 + y_71 + y_93 + y_97 >= 1
 c_1_55: y_0 + y_3 + y_6 + y_19 + y_24 + y_28 + y_31 + y_39 + y_41 + y_48
   + y_55 + y_57 + y_70 + y_75 + y_77 + y_83 + y_85 + y_96 >= 1
 c_1_56: y_6 + y_7 + y_12 + y_16 + y_17 + y_22 + y_23 + y_24 + y_27 + y_38
   + y_39 + y_46 + y_48 + y_52 + y_56 + y_58 + y_59 + y_66 + y_76 + y_77
   + y_78 + y_82 + y_85 >= 1
 c_1_57: y_0 + y_11 + y_19 + y_31 + y_33 + y_55 + y_57 + y_75 + y_81 + y_83
   + y_96 >= 1
 c_1_58: y_7 + y_12 + y_16 + y_17 + y_22 + y_23 + y_27 + y_38 + y_46 + y_48
   + y_56 + y_58 + y_59 + y_66 + y_77 + y_78 + y_82 + y_85 >= 1
 c_1_59: y_6 + y_7 + y_12 + y_16 + y_17 + y_22 + y_23 + y_27 + y_38 + y_46
   + y_52 + y_56 + y_58 + y_59 + y_66 + y_76 + y_77 + y_78 + y_85 >= 1
 c_1_60: y_5 + y_15 + y_20 + y_34 + y_35 + y_36 + y_49 + y_52 + y_60 + y_68
   + y_86 >= 1
 c_1_61: y_1 + y_10 + y_13 + y_14 + y_25 + y_37 + y_61 + y_64 + y_79 + y_87
   + y_89 + y_94 + y_99 >= 1
 c_1_62: y_8 + y_14 + y_25 + y_37 + y_40 + y_44 + y_62 + y_79 + y_87 + y_94
   >= 1
 c_1_63: y_28 + y_53 + y_63 + y_73 + y_74 + y_84 + y_99 >= 1
 c_1_64: y_1 + y_9 + y_10 + y_13 + y_30 + y_32 + y_61 + y_64 + y_89 + y_92
   >= 1
 c_1_65: y_2 + y_8 + y_18 + y_21 + y_40 + y_42 + y_44 + y_65 >= 1
 c_1_66: y_12 + y_16 + y_17 + y_23 + y_27 + y_35 + y_52 + y_56 + y_58
   + y_59 + y_66 + y_76 + y_78 >= 1
 c_1_67: y_5 + y_36 + y_50 + y_51 + y_54 + y_67 + y_71 + y_93 + y_95 + y_97
   + y_98 >= 1
 c_1_68: y_5 + y_15 + y_34 + y_35 + y_36 + y_51 + y_60 + y_68 + y_95 + y_98
   >= 1
 c_1_69: y_0 + y_11 + y_28 + y_30 + y_31 + y_33 + y_41 + y_69 + y_70 + y_75
   + y_80 + y_81 + y_84 + y_92 + y_96 >= 1
 c_1_70: y_0 + y_19 + y_26 + y_28 + y_31 + y_39 + y_41 + y_55 + y_69 + y_70
   + y_75 + y_80 + y_83 + y_84 + y_96 >= 1
 c_1_71: y_36 + y_50 + y_51 + y_54 + y_67 + y_71 + y_93 + y_95 + y_97
   + y_98 >= 1
 c_1_72: y_4 + y_42 + y_43 + y_72 + y_90 >= 1
 c_1_73: y_26 + y_28 + y_45 + y_53 + y_63 + y_73 + y_74 + y_86 >= 1
 c_1_74: y_2 + y_21 + y_25 + y_40 + y_44 + y_45 + y_63 + y_73 + y_74 + y_79
   + y_94 + y_99 >= 1
 c_1_75: y_0 + y_11 + y_28 + y_30 + y_31 + y_33 + y_41 + y_55 + y_57 + y_69
   + y_70 + y_75 + y_80 + y_81 + y_84 + y_92 + y_96 >= 1
 c_1_76: y_6 + y_12 + y_20 + y_22 + y_26 + y_27 + y_39 + y_46 + y_48 + y_52
   + y_56 + y_59 + y_66 + y_76 + y_77 + y_78 + y_85 >= 1
 c_1_77: y_3 + y_6 + y_7 + y_16 + y_19 + y_22 + y_24 + y_27 + y_38 + y_39
   + y_46 + y_48 + y_52 + y_55 + y_56 + y_58 + y_59 + y_76 + y_77 + y_78
   + y_82 + y_83 + y_85 >= 1
 c_1_78: y_6 + y_7 + y_12 + y_16 + y_17 + y_20 + y_22 + y_23 + y_24 + y_27
   + y_38 + y_39 + y_46 + y_48 + y_52 + y_56 + y_58 + y_59 + y_66 + y_76
   + y_77 + y_78 + y_82 + y_85 >= 1
 c_1_79: y_2 + y_8 + y_14 + y_25 + y_37 + y_40 + y_44 + y_61 + y_62 + y_74
   + y_79 + y_87 + y_94 + y_99 >= 1
 c_1_80: y_0 + y_11 + y_30 + y_31 + y_33 + y_41 + y_69 + y_70 + y_75 + y_80
   + y_81 + y_84 + y_92 + y_96 >= 1
 c_1_81: y_0 + y_11 + y_33 + y_57 + y_69 + y_75 + y_80 + y_81 >= 1
 c_1_82: y_3 + y_6 + y_7 + y_16 + y_17 + y_22 + y_24 + y_38 + y_46 + y_48
   + y_56 + y_58 + y_77 + y_78 + y_82 + y_83 + y_85 >= 1
 c_1_83: y_0 + y_3 + y_6 + y_19 + y_22 + y_24 + y_31 + y_39 + y_46 + y_48
   + y_55 + y_57 + y_70 + y_77 + y_82 + y_83 + y_85 + y_96 >= 1
 c_1_84: y_0 + y_28 + y_31 + y_33 + y_41 + y_63 + y_69 + y_70 + y_75 + y_80
   + y_84 + y_96 >= 1
 c_1_85: y_3 + y_6 + y_7 + y_16 + y_19 + y_20 + y_22 + y_24 + y_27 + y_39
   + y_46 + y_48 + y_52 + y_55 + y_56 + y_58 + y_59 + y_76 + y_77 + y_78
   + y_82 + y_83 + y_85 >= 1
 c_1_86: y_15 + y_20 + y_26 + y_34 + y_49 + y_53 + y_60 + y_73 + y_86 >= 1
 c_1_87: y_1 + y_8 + y_14 + y_25 + y_37 + y_40 + y_44 + y_61 + y_62 + y_79
   + y_87 + y_94 >= 1
 c_1_88: y_9 + y_88 + y_91 + y_92 >= 1
 c_1_89: y_1 + y_10 + y_13 + y_14 + y_25 + y_30 + y_32 + y_61 + y_64 + y_89
   + y_92 >= 1
 c_1_90: y_4 + y_43 + y_45 + y_47 + y_72 + y_90 >= 1
 c_1_91: y_9 + y_10 + y_30 + y_32 + y_88 + y_91 + y_92 >= 1
 c_1_92: y_9 + y_10 + y_13 + y_30 + y_32 + y_33 + y_64 + y_69 + y_75 + y_80
   + y_88 + y_89 + y_91 + y_92 >= 1
 c_1_93: y_29 + y_47 + y_50 + y_51 + y_54 + y_67 + y_71 + y_93 + y_97
   + y_98 >= 1
 c_1_94: y_2 + y_14 + y_25 + y_37 + y_40 + y_44 + y_61 + y_62 + y_74 + y_79
   + y_87 + y_94 + y_99 >= 1
 c_1_95: y_5 + y_15 + y_35 + y_36 + y_50 + y_51 + y_67 + y_68 + y_71 + y_95
   + y_97 + y_98 >= 1
 c_1_96: y_0 + y_19 + y_28 + y_31 + y_33 + y_39 + y_41 + y_55 + y_57 + y_69
   + y_70 + y_75 + y_80 + y_83 + y_84 + y_96 >= 1
 c_1_97: y_5 + y_36 + y_50 + y_51 + y_54 + y_67 + y_71 + y_93 + y_95 + y_97
   + y_98 >= 1
 c_1_98: y_5 + y_36 + y_50 + y_51 + y_67 + y_68 + y_71 + y_93 + y_95 + y_97
   + y_98 >= 1
 c_1_99: y_2 + y_25 + y_37 + y_40 + y_44 + y_45 + y_61 + y_63 + y_74 + y_79
   + y_94 + y_99 >= 1
Bounds
 Constant = 1
Binaries
 y_0 y_1 y_2 y_3 y_4 y_5 y_6 y_7 y_8 y_9 y_10 y_11 y_12 y_13 y_14 y_15 y_16
 y_17 y_18 y_19 y_20 y_21 y_22 y_23 y_24 y_25 y_26 y_27 y_28 y_29 y_30 y_31
 y_32 y_33 y_34 y_35 y_36 y_37 y_38 y_39 y_40 y_41 y_42 y_43 y_44 y_45 y_46
 y_47 y_48 y_49 y_50 y_51 y_52 y_53 y_54 y_55 y_56 y_57 y_58 y_59 y_60 y_61
 y_62 y_63 y_64 y_65 y_66 y_67 y_68 y_69 y_70 y_71 y_72 y_73 y_74 y_75 y_76
 y_77 y_78 y_79 y_80 y_81 y_82 y_83 y_84 y_85 y_86 y_87 y_88 y_89 y_90 y_91
 y_92 y_93 y_94 y_95 y_96 y_97 y_98 y_99
End
